
c turning on binary mode checking

c parsing input formula with 10278 variables and 34662 clauses

c finished parsing, read 22925 bytes from proof file

c detected empty clause; start verification via backward checking

c 3511 of 34662 clauses in core                            

c 112 of 5018 lemmas in core using 40441 resolution steps

c 0 RAT lemmas in core; 2 redundant literals in core lemmas

s VERIFIED

c verification time: 0.065 seconds
